p cnf 39 123
-4 2 0
-4 -3 0
-2 3 4 0
5 -1 0
5 -4 0
1 4 -5 0
-6 -5 0
-6 4 0
5 -4 6 0
7 3 0
7 3 0
-3 -7 0
-9 7 0
-9 8 0
-7 -8 9 0
10 -11 0
-10 -11 0
-12 11 0
-12 -11 0
13 -11 0
13 -12 0
11 12 -13 0
13 14 -15 0
-13 -14 -15 0
13 -14 15 0
-13 14 15 0
16 9 0
16 15 0
-9 -15 -16 0
-17 -16 0
-17 13 0
16 -13 17 0
-18 9 -19 0
18 -9 -19 0
-18 -9 19 0
18 9 19 0
20 19 0
20 -3 0
-19 3 -20 0
-19 16 -21 0
19 -16 -21 0
-19 -16 21 0
19 16 21 0
-23 22 0
-23 -3 0
-22 3 23 0
24 -23 0
24 23 0
25 -21 0
25 -24 0
21 24 -25 0
-20 -25 -26 0
20 25 -26 0
-20 25 26 0
20 -25 26 0
27 17 0
27 26 0
-17 -26 -27 0
-9 -12 -28 0
9 12 -28 0
-9 12 28 0
9 -12 28 0
-4 2 -29 0
4 -2 -29 0
-4 -2 29 0
4 2 29 0
28 -29 -30 0
-28 29 -30 0
28 29 30 0
-28 -29 30 0
31 -1 -32 0
-31 1 -32 0
31 1 32 0
-31 -1 32 0
-34 12 0
-34 33 0
-12 -33 34 0
-35 -34 0
-35 9 0
34 -9 35 0
-36 32 0
-36 -35 0
-32 35 36 0
-30 -36 -37 0
30 36 -37 0
-30 36 37 0
30 -36 37 0
27 -37 -38 0
-27 37 -38 0
27 37 38 0
-27 -37 38 0
39 6 0
39 38 0
-6 -38 -39 0
-18 4 -37 0
-22 -2 27 13 0
-27 -25 -1 0
33 37 0
-30 28 22 0
32 -33 0
27 -25 -36 0
5 28 -25 16 39 0
2 -24 20 0
20 7 0
-13 29 -21 19 0
-1 24 -22 -26 0
-36 -10 -34 0
4 -31 -30 0
9 21 17 -11 -8 0
-37 -11 -14 20 0
9 -18 -14 0
8 -4 -38 6 36 0
-33 -26 15 31 0
23 -4 0
-38 5 12 0
-6 17 -28 0
-29 37 0
-18 -22 -20 0
-30 -22 -32 3 0
21 -2 6 0
6 22 0
-1 -28 -38 -37 0
39 0
